c A SAT instance generated from a 3-CNF formula that had 24 clauses and 6 variables
p cnf 6 24
3 -4 -2 0
5 6 1 0
2 -3 -6 0
6 -3 1 0
3 -5 -4 0
-6 4 -2 0
2 1 -6 0
-5 4 3 0
5 -6 4 0
1 5 3 0
5 -1 -4 0
-3 4 2 0
6 -4 3 0
-6 -4 -3 0
-2 -3 -5 0
-2 -3 -6 0
3 1 -2 0
6 1 3 0
5 -6 2 0
6 -1 -5 0
5 2 1 0
-1 -5 -2 0
-3 4 -5 0
-2 3 4 0
